32      4       
14      13      15      12      
0       0       0       0       0       3       2       12      13      
6       0       1       0       6       1       3       
1       0       6       0       7       2       4       31      
5       0       0       12      8       3       5       16      30      
7       14      1       0       0       2       6       7       
8       3       0       0       6       1       8       
5       0       9       0       1       3       11      23      29      
7       0       3       11      0       1       9       
9       14      0       5       0       2       10      23      
1       0       5       0       1       1       14      
2       14      0       6       0       1       14      
7       0       0       8       12      1       14      
9       0       4       8       0       1       14      
10      0       4       2       0       1       15      
9       14      1       0       0       2       17      28      
9       6       0       0       9       2       17      28      
2       0       11      5       0       2       18      27      
2       3       0       9       0       1       19      
1       8       0       0       2       1       20      
10      3       0       3       0       1       21      
1       1       0       0       8       2       22      26      
5       0       13      6       0       1       24      
4       0       13      8       0       1       24      
7       0       4       0       6       1       25      
9       4       0       0       5       1       32      
6       0       12      12      0       1       32      
2       14      0       0       5       1       32      
3       1       0       0       3       1       32      
8       4       0       10      0       1       32      
5       2       0       8       0       1       32      
4       0       11      0       11      1       32      
0       0       0       0       0       0       
